;--------------------------------------------------------------------------
; Benchmark created with Zazu
; Benchmark: 		wensley_norm_inv1_2xlen3
; Created:   		2022-01-11 18:12
; Generator of the ideal: 
; 		 -2*b00*y00 + a00*d00 + 2*b00*y - a*d00
; 		 -b*d00 + b00*d
; 		 a*d - 2*b*y + 2*b*y00 - a00*d
; Testing invariant: a^2*a00*b^3*d^4*d00*y^2 - 2*a^2*b^2*b00*d*y^3*y00 - a^4*a00*b^3*d^3*d00*y^2 - a^4*a00*b^2*d^6*d00*y^5 - 2*a^4*b^4*b00*d^3*y^2 - 2*b*b00*d^2*y^5 - 2*a^2*b^3*b00*d^4*y^2*y00 + 2*a^2*b^2*b00*d^4*y^4 + a^5*b^4*d^3*d00*y - 2*a^2*b*b00*d^4*y^6*y00 + a^5*b^2*d^6*d00*y^5 + 2*a^4*b^2*b00*d^6*y^5*y00 + 2*a^2*b^3*b00*d^4*y^3 - a^4*a00*b^3*d^6*d00*y^4 - a00*b*d^2*d00*y^4 - 2*a^4*b^3*b00*d^6*y^5 - a^3*b^3*d^4*d00*y^2 - 2*a^2*b^2*b00*d^4*y^3*y00 + 2*a^4*b^4*b00*d^3*y*y00 - a^3*b*d^4*d00*y^6 + a^2*a00*b^2*d*d00*y^3 + a^5*b^3*d^6*d00*y^4 + 2*a^2*b*b00*d^4*y^7 + a*b*d^2*d00*y^4 - a^4*a00*b^4*d^3*d00*y - a^3*b^2*d^4*d00*y^3 + 2*a^2*b^2*b00*d*y^4 + 2*b*b00*d^2*y^4*y00 + a^2*a00*b^2*d^4*d00*y^3 - a^3*b^2*d*d00*y^3 + 2*a^4*b^3*b00*d^6*y^4*y00 + a^2*a00*b*d^4*d00*y^6 - 2*a^4*b^3*b00*d^3*y^3 + a^5*b^3*d^3*d00*y^2 + 2*a^4*b^3*b00*d^3*y^2*y00 - 2*a^4*b^2*b00*d^6*y^6
;--------------------------------------------------------------------------

(set-logic NRA)
(set-option :produce-proofs true)

(declare-const a00 Real)
(declare-const b00 Real)
(declare-const d00 Real)
(declare-const y00 Real)

(assert 
	(exists
		((a Real) (b Real) (d Real) (y Real))
		(and
			(= (- (+ (* (- 2) b00 y00) (* a00 d00) (* 2 b00 y)) (* a d00)) 0)
			(= (+ (* (- 1) b d00) (* b00 d)) 0)
			(= (- (+ (- (* a d) (* 2 b y)) (* 2 b y00)) (* a00 d)) 0)

			(or
				(not (= (- (+ (- (+ (- (+ (- (+ (- (+ (- (+ (- (+ (- (* a a a00 (/ b 2) (/ b 2) (/ b 2) (/ d 2) (/ d 2) (/ d 2) (/ d 2) d00 y y) (* 2 a a (/ b 2) (/ b 2) b00 (/ d 2) y y y y00) (* a a a a a00 (/ b 2) (/ b 2) (/ b 2) (/ d 2) (/ d 2) (/ d 2) d00 y y) (* a a a a a00 (/ b 2) (/ b 2) (/ d 2) (/ d 2) (/ d 2) (/ d 2) (/ d 2) (/ d 2) d00 y y y y y) (* 2 a a a a (/ b 2) (/ b 2) (/ b 2) (/ b 2) b00 (/ d 2) (/ d 2) (/ d 2) y y) (* 2 (/ b 2) b00 (/ d 2) (/ d 2) y y y y y) (* 2 a a (/ b 2) (/ b 2) (/ b 2) b00 (/ d 2) (/ d 2) (/ d 2) (/ d 2) y y y00)) (* 2 a a (/ b 2) (/ b 2) b00 (/ d 2) (/ d 2) (/ d 2) (/ d 2) y y y y) (* a a a a a (/ b 2) (/ b 2) (/ b 2) (/ b 2) (/ d 2) (/ d 2) (/ d 2) d00 y)) (* 2 a a (/ b 2) b00 (/ d 2) (/ d 2) (/ d 2) (/ d 2) y y y y y y y00)) (* a a a a a (/ b 2) (/ b 2) (/ d 2) (/ d 2) (/ d 2) (/ d 2) (/ d 2) (/ d 2) d00 y y y y y) (* 2 a a a a (/ b 2) (/ b 2) b00 (/ d 2) (/ d 2) (/ d 2) (/ d 2) (/ d 2) (/ d 2) y y y y y y00) (* 2 a a (/ b 2) (/ b 2) (/ b 2) b00 (/ d 2) (/ d 2) (/ d 2) (/ d 2) y y y)) (* a a a a a00 (/ b 2) (/ b 2) (/ b 2) (/ d 2) (/ d 2) (/ d 2) (/ d 2) (/ d 2) (/ d 2) d00 y y y y) (* a00 (/ b 2) (/ d 2) (/ d 2) d00 y y y y) (* 2 a a a a (/ b 2) (/ b 2) (/ b 2) b00 (/ d 2) (/ d 2) (/ d 2) (/ d 2) (/ d 2) (/ d 2) y y y y y) (* a a a (/ b 2) (/ b 2) (/ b 2) (/ d 2) (/ d 2) (/ d 2) (/ d 2) d00 y y) (* 2 a a (/ b 2) (/ b 2) b00 (/ d 2) (/ d 2) (/ d 2) (/ d 2) y y y y00)) (* 2 a a a a (/ b 2) (/ b 2) (/ b 2) (/ b 2) b00 (/ d 2) (/ d 2) (/ d 2) y y00)) (* a a a (/ b 2) (/ d 2) (/ d 2) (/ d 2) (/ d 2) d00 y y y y y y)) (* a a a00 (/ b 2) (/ b 2) (/ d 2) d00 y y y) (* a a a a a (/ b 2) (/ b 2) (/ b 2) (/ d 2) (/ d 2) (/ d 2) (/ d 2) (/ d 2) (/ d 2) d00 y y y y) (* 2 a a (/ b 2) b00 (/ d 2) (/ d 2) (/ d 2) (/ d 2) y y y y y y y) (* a (/ b 2) (/ d 2) (/ d 2) d00 y y y y)) (* a a a a a00 (/ b 2) (/ b 2) (/ b 2) (/ b 2) (/ d 2) (/ d 2) (/ d 2) d00 y) (* a a a (/ b 2) (/ b 2) (/ d 2) (/ d 2) (/ d 2) (/ d 2) d00 y y y)) (* 2 a a (/ b 2) (/ b 2) b00 (/ d 2) y y y y) (* 2 (/ b 2) b00 (/ d 2) (/ d 2) y y y y y00) (* a a a00 (/ b 2) (/ b 2) (/ d 2) (/ d 2) (/ d 2) (/ d 2) d00 y y y)) (* a a a (/ b 2) (/ b 2) (/ d 2) d00 y y y)) (* 2 a a a a (/ b 2) (/ b 2) (/ b 2) b00 (/ d 2) (/ d 2) (/ d 2) (/ d 2) (/ d 2) (/ d 2) y y y y y00) (* a a a00 (/ b 2) (/ d 2) (/ d 2) (/ d 2) (/ d 2) d00 y y y y y y)) (* 2 a a a a (/ b 2) (/ b 2) (/ b 2) b00 (/ d 2) (/ d 2) (/ d 2) y y y)) (* a a a a a (/ b 2) (/ b 2) (/ b 2) (/ d 2) (/ d 2) (/ d 2) d00 y y) (* 2 a a a a (/ b 2) (/ b 2) (/ b 2) b00 (/ d 2) (/ d 2) (/ d 2) y y y00)) (* 2 a a a a (/ b 2) (/ b 2) b00 (/ d 2) (/ d 2) (/ d 2) (/ d 2) (/ d 2) (/ d 2) y y y y y y)) 0))
				(not (= (- (+ (- (+ (- (+ (- (+ (- (+ (- (+ (- (+ (- (* (+ a b) (+ a b) a00 (/ b 2) (/ b 2) (/ b 2) (/ d 2) (/ d 2) (/ d 2) (/ d 2) d00 (+ y (/ d 2)) (+ y (/ d 2))) (* 2 (+ a b) (+ a b) (/ b 2) (/ b 2) b00 (/ d 2) (+ y (/ d 2)) (+ y (/ d 2)) (+ y (/ d 2)) y00) (* (+ a b) (+ a b) (+ a b) (+ a b) a00 (/ b 2) (/ b 2) (/ b 2) (/ d 2) (/ d 2) (/ d 2) d00 (+ y (/ d 2)) (+ y (/ d 2))) (* (+ a b) (+ a b) (+ a b) (+ a b) a00 (/ b 2) (/ b 2) (/ d 2) (/ d 2) (/ d 2) (/ d 2) (/ d 2) (/ d 2) d00 (+ y (/ d 2)) (+ y (/ d 2)) (+ y (/ d 2)) (+ y (/ d 2)) (+ y (/ d 2))) (* 2 (+ a b) (+ a b) (+ a b) (+ a b) (/ b 2) (/ b 2) (/ b 2) (/ b 2) b00 (/ d 2) (/ d 2) (/ d 2) (+ y (/ d 2)) (+ y (/ d 2))) (* 2 (/ b 2) b00 (/ d 2) (/ d 2) (+ y (/ d 2)) (+ y (/ d 2)) (+ y (/ d 2)) (+ y (/ d 2)) (+ y (/ d 2))) (* 2 (+ a b) (+ a b) (/ b 2) (/ b 2) (/ b 2) b00 (/ d 2) (/ d 2) (/ d 2) (/ d 2) (+ y (/ d 2)) (+ y (/ d 2)) y00)) (* 2 (+ a b) (+ a b) (/ b 2) (/ b 2) b00 (/ d 2) (/ d 2) (/ d 2) (/ d 2) (+ y (/ d 2)) (+ y (/ d 2)) (+ y (/ d 2)) (+ y (/ d 2))) (* (+ a b) (+ a b) (+ a b) (+ a b) (+ a b) (/ b 2) (/ b 2) (/ b 2) (/ b 2) (/ d 2) (/ d 2) (/ d 2) d00 (+ y (/ d 2)))) (* 2 (+ a b) (+ a b) (/ b 2) b00 (/ d 2) (/ d 2) (/ d 2) (/ d 2) (+ y (/ d 2)) (+ y (/ d 2)) (+ y (/ d 2)) (+ y (/ d 2)) (+ y (/ d 2)) (+ y (/ d 2)) y00)) (* (+ a b) (+ a b) (+ a b) (+ a b) (+ a b) (/ b 2) (/ b 2) (/ d 2) (/ d 2) (/ d 2) (/ d 2) (/ d 2) (/ d 2) d00 (+ y (/ d 2)) (+ y (/ d 2)) (+ y (/ d 2)) (+ y (/ d 2)) (+ y (/ d 2))) (* 2 (+ a b) (+ a b) (+ a b) (+ a b) (/ b 2) (/ b 2) b00 (/ d 2) (/ d 2) (/ d 2) (/ d 2) (/ d 2) (/ d 2) (+ y (/ d 2)) (+ y (/ d 2)) (+ y (/ d 2)) (+ y (/ d 2)) (+ y (/ d 2)) y00) (* 2 (+ a b) (+ a b) (/ b 2) (/ b 2) (/ b 2) b00 (/ d 2) (/ d 2) (/ d 2) (/ d 2) (+ y (/ d 2)) (+ y (/ d 2)) (+ y (/ d 2)))) (* (+ a b) (+ a b) (+ a b) (+ a b) a00 (/ b 2) (/ b 2) (/ b 2) (/ d 2) (/ d 2) (/ d 2) (/ d 2) (/ d 2) (/ d 2) d00 (+ y (/ d 2)) (+ y (/ d 2)) (+ y (/ d 2)) (+ y (/ d 2))) (* a00 (/ b 2) (/ d 2) (/ d 2) d00 (+ y (/ d 2)) (+ y (/ d 2)) (+ y (/ d 2)) (+ y (/ d 2))) (* 2 (+ a b) (+ a b) (+ a b) (+ a b) (/ b 2) (/ b 2) (/ b 2) b00 (/ d 2) (/ d 2) (/ d 2) (/ d 2) (/ d 2) (/ d 2) (+ y (/ d 2)) (+ y (/ d 2)) (+ y (/ d 2)) (+ y (/ d 2)) (+ y (/ d 2))) (* (+ a b) (+ a b) (+ a b) (/ b 2) (/ b 2) (/ b 2) (/ d 2) (/ d 2) (/ d 2) (/ d 2) d00 (+ y (/ d 2)) (+ y (/ d 2))) (* 2 (+ a b) (+ a b) (/ b 2) (/ b 2) b00 (/ d 2) (/ d 2) (/ d 2) (/ d 2) (+ y (/ d 2)) (+ y (/ d 2)) (+ y (/ d 2)) y00)) (* 2 (+ a b) (+ a b) (+ a b) (+ a b) (/ b 2) (/ b 2) (/ b 2) (/ b 2) b00 (/ d 2) (/ d 2) (/ d 2) (+ y (/ d 2)) y00)) (* (+ a b) (+ a b) (+ a b) (/ b 2) (/ d 2) (/ d 2) (/ d 2) (/ d 2) d00 (+ y (/ d 2)) (+ y (/ d 2)) (+ y (/ d 2)) (+ y (/ d 2)) (+ y (/ d 2)) (+ y (/ d 2)))) (* (+ a b) (+ a b) a00 (/ b 2) (/ b 2) (/ d 2) d00 (+ y (/ d 2)) (+ y (/ d 2)) (+ y (/ d 2))) (* (+ a b) (+ a b) (+ a b) (+ a b) (+ a b) (/ b 2) (/ b 2) (/ b 2) (/ d 2) (/ d 2) (/ d 2) (/ d 2) (/ d 2) (/ d 2) d00 (+ y (/ d 2)) (+ y (/ d 2)) (+ y (/ d 2)) (+ y (/ d 2))) (* 2 (+ a b) (+ a b) (/ b 2) b00 (/ d 2) (/ d 2) (/ d 2) (/ d 2) (+ y (/ d 2)) (+ y (/ d 2)) (+ y (/ d 2)) (+ y (/ d 2)) (+ y (/ d 2)) (+ y (/ d 2)) (+ y (/ d 2))) (* (+ a b) (/ b 2) (/ d 2) (/ d 2) d00 (+ y (/ d 2)) (+ y (/ d 2)) (+ y (/ d 2)) (+ y (/ d 2)))) (* (+ a b) (+ a b) (+ a b) (+ a b) a00 (/ b 2) (/ b 2) (/ b 2) (/ b 2) (/ d 2) (/ d 2) (/ d 2) d00 (+ y (/ d 2))) (* (+ a b) (+ a b) (+ a b) (/ b 2) (/ b 2) (/ d 2) (/ d 2) (/ d 2) (/ d 2) d00 (+ y (/ d 2)) (+ y (/ d 2)) (+ y (/ d 2)))) (* 2 (+ a b) (+ a b) (/ b 2) (/ b 2) b00 (/ d 2) (+ y (/ d 2)) (+ y (/ d 2)) (+ y (/ d 2)) (+ y (/ d 2))) (* 2 (/ b 2) b00 (/ d 2) (/ d 2) (+ y (/ d 2)) (+ y (/ d 2)) (+ y (/ d 2)) (+ y (/ d 2)) y00) (* (+ a b) (+ a b) a00 (/ b 2) (/ b 2) (/ d 2) (/ d 2) (/ d 2) (/ d 2) d00 (+ y (/ d 2)) (+ y (/ d 2)) (+ y (/ d 2)))) (* (+ a b) (+ a b) (+ a b) (/ b 2) (/ b 2) (/ d 2) d00 (+ y (/ d 2)) (+ y (/ d 2)) (+ y (/ d 2)))) (* 2 (+ a b) (+ a b) (+ a b) (+ a b) (/ b 2) (/ b 2) (/ b 2) b00 (/ d 2) (/ d 2) (/ d 2) (/ d 2) (/ d 2) (/ d 2) (+ y (/ d 2)) (+ y (/ d 2)) (+ y (/ d 2)) (+ y (/ d 2)) y00) (* (+ a b) (+ a b) a00 (/ b 2) (/ d 2) (/ d 2) (/ d 2) (/ d 2) d00 (+ y (/ d 2)) (+ y (/ d 2)) (+ y (/ d 2)) (+ y (/ d 2)) (+ y (/ d 2)) (+ y (/ d 2)))) (* 2 (+ a b) (+ a b) (+ a b) (+ a b) (/ b 2) (/ b 2) (/ b 2) b00 (/ d 2) (/ d 2) (/ d 2) (+ y (/ d 2)) (+ y (/ d 2)) (+ y (/ d 2)))) (* (+ a b) (+ a b) (+ a b) (+ a b) (+ a b) (/ b 2) (/ b 2) (/ b 2) (/ d 2) (/ d 2) (/ d 2) d00 (+ y (/ d 2)) (+ y (/ d 2))) (* 2 (+ a b) (+ a b) (+ a b) (+ a b) (/ b 2) (/ b 2) (/ b 2) b00 (/ d 2) (/ d 2) (/ d 2) (+ y (/ d 2)) (+ y (/ d 2)) y00)) (* 2 (+ a b) (+ a b) (+ a b) (+ a b) (/ b 2) (/ b 2) b00 (/ d 2) (/ d 2) (/ d 2) (/ d 2) (/ d 2) (/ d 2) (+ y (/ d 2)) (+ y (/ d 2)) (+ y (/ d 2)) (+ y (/ d 2)) (+ y (/ d 2)) (+ y (/ d 2)))) 0))
			)
		)
	)
)
(check-sat)
(get-proof)
(exit)
